(set-info :smt-lib-version 2.6)
(set-logic QF_UFLRA)
(set-info :source |
MathSat group

|)
(set-info :category "random")
(set-info :status sat)
(declare-fun x0 () Real)
(declare-fun x1 () Real)
(declare-fun x2 () Real)
(declare-fun x3 () Real)
(declare-fun x4 () Real)
(declare-fun x5 () Real)
(declare-fun x6 () Real)
(declare-fun x7 () Real)
(declare-fun x8 () Real)
(declare-fun x9 () Real)
(declare-fun x10 () Real)
(declare-fun x11 () Real)
(declare-fun x12 () Real)
(declare-fun x13 () Real)
(declare-fun x14 () Real)
(declare-fun x15 () Real)
(declare-fun x16 () Real)
(declare-fun x17 () Real)
(declare-fun x18 () Real)
(declare-fun x19 () Real)
(declare-fun x20 () Real)
(declare-fun x21 () Real)
(declare-fun x22 () Real)
(declare-fun x23 () Real)
(declare-fun x24 () Real)
(declare-fun x25 () Real)
(declare-fun x26 () Real)
(declare-fun x27 () Real)
(declare-fun x28 () Real)
(declare-fun x29 () Real)
(declare-fun f0_1 (Real) Real)
(declare-fun f0_2 (Real Real) Real)
(declare-fun f0_3 (Real Real Real) Real)
(declare-fun f0_4 (Real Real Real Real) Real)
(declare-fun P0 () Bool)
(declare-fun P1 () Bool)
(declare-fun P2 () Bool)
(declare-fun P3 () Bool)
(declare-fun P4 () Bool)
(declare-fun P5 () Bool)
(declare-fun P6 () Bool)
(declare-fun P7 () Bool)
(declare-fun P8 () Bool)
(declare-fun P9 () Bool)
(declare-fun P10 () Bool)
(declare-fun P11 () Bool)
(declare-fun P12 () Bool)
(declare-fun P13 () Bool)
(declare-fun P14 () Bool)
(declare-fun P15 () Bool)
(declare-fun P16 () Bool)
(declare-fun P17 () Bool)
(declare-fun P18 () Bool)
(declare-fun P19 () Bool)
(declare-fun P20 () Bool)
(declare-fun P21 () Bool)
(declare-fun P22 () Bool)
(declare-fun P23 () Bool)
(declare-fun P24 () Bool)
(declare-fun P25 () Bool)
(declare-fun P26 () Bool)
(declare-fun P27 () Bool)
(declare-fun P28 () Bool)
(declare-fun P29 () Bool)
(assert (let ((?v_39 (* 7 x16)) (?v_131 (= (- (- (* 42 x4) (* 10 x21)) (* 15 x15)) 4)) (?v_108 (< (- (+ (* 21 x26) (* 34 x21)) (* 18 x18)) 31)) (?v_128 (< (- (- (* 20 x29) (* 13 x13)) (* 11 x17)) 14)) (?v_9 (* 17 x27)) (?v_95 (<= (- (+ (* 36 x21) (* 9 x22)) (* 25 x21)) 12))) (let ((?v_13 (<= (- (- (* 7 x6) (* 22 x3)) ?v_9) 20)) (?v_104 (< (- (+ (* 33 x23) (* 28 x20)) (* 2 x27)) 15)) (?v_17 (f0_1 x4))) (let ((?v_65 (= (f0_1 x14) ?v_17)) (?v_126 (= x6 (f0_2 x24 x16))) (?v_41 (= (f0_2 x18 x17) x27)) (?v_76 (distinct (f0_1 x9) (f0_2 x3 x18))) (?v_80 (distinct (f0_2 x7 x6) (f0_2 x5 x17))) (?v_14 (f0_1 x26))) (let ((?v_27 (distinct x4 ?v_14)) (?v_2 (f0_1 x13))) (let ((?v_26 (= (f0_2 x25 x1) ?v_2)) (?v_34 (= x11 (f0_2 x6 x29))) (?v_75 (distinct (f0_1 x28) (f0_1 x7))) (?v_62 (distinct (f0_2 x13 x15) (f0_2 x21 x3))) (?v_35 (distinct (f0_2 x9 x28) (f0_2 x11 x3))) (?v_68 (= (f0_2 x21 x9) (f0_2 x20 x13))) (?v_6 (distinct (f0_2 x22 x26) x24)) (?v_24 (distinct (f0_2 x22 x29) x12)) (?v_84 (= (f0_1 x18) x13)) (?v_60 (= (f0_1 x23) ?v_2)) (?v_73 (f0_1 x2))) (let ((?v_92 (= x26 ?v_73)) (?v_149 (distinct x8 (f0_2 x7 x25))) (?v_29 (= ?v_14 (f0_1 x10))) (?v_63 (distinct (f0_2 x5 x13) (f0_2 x24 x21))) (?v_32 (= x14 x25)) (?v_82 (distinct (f0_1 x25) x21)) (?v_44 (distinct (f0_2 x13 x24) (f0_1 x1))) (?v_138 (distinct (f0_2 x10 x18) x17)) (?v_18 (= x15 x8)) (?v_12 (= x13 x17)) (?v_36 (= ?v_17 x13)) (?v_118 (= x5 x29)) (?v_3 (= (f0_2 x27 x8) ?v_73)) (?v_16 (= (f0_1 x27) x18)) (?v_71 (not ?v_41)) (?v_33 (not ?v_131)) (?v_7 (not P20)) (?v_98 (not ?v_27))) (let ((?v_46 (not ?v_12)) (?v_10 (not ?v_68)) (?v_0 (not P0)) (?v_4 (not P1)) (?v_43 (not P15)) (?v_11 (not ?v_80)) (?v_45 (not ?v_108)) (?v_5 (not P25)) (?v_47 (not P10)) (?v_152 (not P9)) (?v_136 (not ?v_62)) (?v_66 (not ?v_24)) (?v_52 (not ?v_13)) (?v_23 (not P7)) (?v_58 (not P14)) (?v_57 (not ?v_82)) (?v_89 (not P6)) (?v_51 (not ?v_149)) (?v_28 (not P18)) (?v_121 (not ?v_18)) (?v_49 (not P26)) (?v_25 (not ?v_63)) (?v_21 (not P5)) (?v_91 (not ?v_35)) (?v_59 (not P8)) (?v_88 (not P12)) (?v_85 (not P4)) (?v_55 (not ?v_138)) (?v_83 (not ?v_84)) (?v_93 (not ?v_16)) (?v_137 (not ?v_32)) (?v_78 (not ?v_34)) (?v_37 (not P28)) (?v_42 (not ?v_36)) (?v_54 (not ?v_95)) (?v_87 (not ?v_26)) (?v_127 (not P21)) (?v_96 (not P13)) (?v_151 (not ?v_60)) (?v_69 (not P11)) (?v_122 (not P22)) (?v_94 (not P23)) (?v_130 (not ?v_92)) (?v_117 (not ?v_3)) (?v_143 (not ?v_75)) (?v_144 (not P17)) (?v_99 (not ?v_118)) (?v_97 (not ?v_76)) (?v_139 (not ?v_6)) (?v_147 (not ?v_29)) (?v_114 (not P29)) (?v_111 (not ?v_104)) (?v_112 (not P27)) (?v_115 (not P2)) (?v_120 (not P16)) (?v_123 (not P3)) (?v_134 (not P19)) (?v_135 (not ?v_44)) (?v_150 (not ?v_65)) (?v_153 (not ?v_128)) (?v_146 (not P24)) (?v_48 (distinct (- (- 0 ?v_9) (* 35 x12)) 28)) (?v_70 (<= (- (* 20 x15) (* 23 x14)) 12))) (let ((?v_77 (not ?v_70)) (?v_79 (< (- (- 0 (* 28 x3)) (* 27 x22)) 37))) (let ((?v_116 (not ?v_79)) (?v_113 (<= (+ (- 0 (* 20 x26)) (* 3 x18)) 0)) (?v_103 (not ?v_48))) (let ((?v_129 (not ?v_113)) (?v_74 (<= (- (+ (* (- 29) x1) (* 23 x7)) (* 6 x15)) (- 37))) (?v_148 (<= (- (- x28 (* 24 x28)) (* 12 x10)) (- 7)))) (let ((?v_31 (not ?v_148)) (?v_22 (< (- (- (* (- 34) x8) (* 13 x16)) (* 20 x16)) 11)) (?v_20 (< (- (+ (* (- 18) x27) (* 39 x29)) (* 13 x26)) 38)) (?v_1 (<= (- (- (* 9 x14) (* 7 x8)) (* 30 x10)) (- 23)))) (let ((?v_106 (not ?v_1)) (?v_40 (<= (+ (* 37 x21) (* 36 x6) (* 25 x17)) (- 25)))) (let ((?v_125 (not ?v_40)) (?v_8 (<= (- (+ (* (- 3) x3) (* 11 x13)) (* 19 x17)) (- 15)))) (let ((?v_19 (not ?v_8)) (?v_86 (<= (+ (- (* (- 6) x24) (* 23 x27)) (* 26 x20)) (- 29)))) (let ((?v_64 (not ?v_86)) (?v_110 (<= (- (+ (* (- 1) x27) (* 23 x11)) (* 18 x23)) (- 8)))) (let ((?v_38 (not ?v_110)) (?v_30 (<= (+ (- (* (- 4) x10) (* 23 x21)) (* 14 x16)) (- 44))) (?v_81 (< (+ (- (* 42 x26) (* 8 x12)) (* 22 x5)) (- 31)))) (let ((?v_145 (not ?v_81)) (?v_53 (< (- (- (* (- 34) x29) (* 8 x2)) (* 12 x20)) (- 26)))) (let ((?v_50 (not ?v_53)) (?v_15 (<= (+ (* (- 27) x29) (* 8 x28) (* 13 x8)) 36)) (?v_142 (< (- (- (* 35 x24) (* 25 x26)) (* 32 x25)) (- 1)))) (let ((?v_107 (not ?v_142)) (?v_140 (< (+ (* 28 x5) (* 17 x21)) (- 6)))) (let ((?v_61 (not ?v_140)) (?v_124 (not ?v_22)) (?v_105 (not ?v_15)) (?v_100 (not ?v_30)) (?v_133 (<= (+ (* (- 30) x23) (* 8 x24) (* 21 x27)) 42))) (let ((?v_141 (not ?v_133)) (?v_101 (= (+ (* 4 x7) (* 20 x18) (* 16 x29)) (- 26)))) (let ((?v_67 (not ?v_101)) (?v_102 (<= (+ (- ?v_39 ?v_39) (* 2 x18)) (- 30)))) (let ((?v_56 (not ?v_102)) (?v_72 (< (+ (* (- 17) x25) (* 39 x14)) (- 26))) (?v_119 (<= (+ (- (* (- 36) x5) (* 8 x3)) (* 25 x19)) (- 32)))) (let ((?v_132 (not ?v_119)) (?v_90 (not ?v_72)) (?v_109 (not ?v_74))) (and (and (and (and (and (and (and (and (and (and (and (and (and (and (and (and (and (and (and (and (and (and (and (and (and (and (and (and (and (and (and (and (and (and (and (and (and (and (and (and (and (and (and (and (and (and (and (and (and (and (and (and (and (and (and (and (and (and (and (and (and (and (and (and (and (and (and (and (and (and (and (and (and (and (and (and (and (and (and (and (and (and (and (and (and (and (and (and (and (and (and (and (and (and (and (and (and (and (and (and (and (and (and (and (and (and (and (and (and (and (and (and (and (and (and (and (and (and (and (and (and (and (and (and (and (and (and (and (and (and (and (and (and (and (and (and (and (and (and (and (and (and (and (and (and (and (and (and (and (and (and (and (and (and (and (and (and (and (and (and (and (and (and (and (and (and (and (and (and (and (and (and (and (and (and (and (and (and (and (and (and (and (and (and (and (and (and (and (and (and (and (and (and (and (and (and (and (and (and (and (and (and (and (and (and (and (and (and (and (and (and (and (and (and (and (and (and (and (and (and (and (and (and (and (and (and (and (and (and (and (and (and (and (and (and (and (and (and (and (and (and (and (and (and (and (and (and (and (and (and (and (and (and (and (and (and (and (and (and (and (and (and (and (and (and (and (and (and (and (and (and (and (and (and (and (and (and (and (and (and (and (and (and (and (and (and (and (and (and (and (and (and (and (and (and (and (and (and (and (and (and (and (and (and (and (and (and (and (and (and (and (and (and (and (and (and (and (and (and (and (and (and (and (and (and (and (and (and (and (and (and (and (and (and (and (and (and (and (and (and (and (and (and (and (and (and (and (and (and (and (and (and (and (and (and (and (and (and (and (or (or ?v_71 ?v_33) ?v_7) (or (or ?v_98 P15) ?v_46)) (or (or ?v_74 ?v_10) ?v_26)) (or (or ?v_31 ?v_22) ?v_0)) (or (or ?v_3 ?v_20) ?v_4)) (or (or ?v_43 ?v_106) ?v_125)) (or (or ?v_11 ?v_32) ?v_0)) (or (or ?v_19 ?v_64) ?v_45)) (or (or ?v_1 P3) P9)) (or (or ?v_5 ?v_38) ?v_30)) (or (or ?v_145 ?v_50) ?v_60)) (or (or ?v_6 ?v_47) ?v_152)) (or (or ?v_3 P12) ?v_4)) (or (or P28 ?v_18) P14)) (or (or ?v_5 ?v_6) ?v_136)) (or (or ?v_7 P7) ?v_36)) (or (or ?v_66 P9) ?v_7)) (or (or ?v_52 P25) ?v_6)) (or (or ?v_8 ?v_48) ?v_15)) (or (or ?v_10 ?v_11) ?v_7)) (or (or P8 ?v_16) ?v_23)) (or (or ?v_58 ?v_12) ?v_57)) (or (or ?v_13 ?v_44) ?v_29)) (or (or P11 P4) P15)) (or (or ?v_15 ?v_89) ?v_16)) (or (or ?v_51 ?v_65) ?v_28)) (or (or ?v_77 ?v_121) ?v_107)) (or (or ?v_49 ?v_7) ?v_19)) (or (or ?v_25 ?v_21) ?v_91)) (or (or ?v_59 ?v_61) ?v_20)) (or (or ?v_21 ?v_124) ?v_23)) (or (or ?v_24 ?v_25) ?v_88)) (or (or ?v_26 ?v_34) ?v_105)) (or (or P22 ?v_27) ?v_7)) (or (or P28 ?v_85) ?v_55)) (or (or ?v_83 ?v_28) P21)) (or (or ?v_76 ?v_29) ?v_5)) (or (or (not ?v_20) P7) ?v_93)) (or (or ?v_100 ?v_31) P1)) (or (or ?v_137 ?v_33) ?v_78)) (or (or P1 ?v_35) ?v_141)) (or (or ?v_37 ?v_67) ?v_42)) (or (or ?v_31 ?v_8) ?v_30)) (or (or ?v_22 ?v_37) P22)) (or (or ?v_54 ?v_38) ?v_75)) (or (or ?v_56 ?v_40) ?v_41)) (or (or ?v_42 ?v_34) P15)) (or (or ?v_116 ?v_43) ?v_33)) (or (or ?v_44 P6) P21)) (or (or ?v_45 ?v_87) ?v_40)) (or (or ?v_46 ?v_113) ?v_47)) (or (or ?v_103 ?v_49) ?v_50)) (or (or ?v_37 ?v_48) P14)) (or (or ?v_51 ?v_38) ?v_52)) (or (or ?v_72 ?v_127) ?v_53)) (or (or P3 ?v_54) ?v_55)) (or (or ?v_56 ?v_96) ?v_32)) (or (or ?v_22 ?v_13) ?v_57)) (or (or ?v_27 P23) ?v_58)) (or (or ?v_59 ?v_4) ?v_26)) (or (or ?v_151 ?v_61) P4)) (or (or ?v_62 ?v_58) ?v_63)) (or (or P23 ?v_11) ?v_69)) (or (or ?v_64 ?v_65) P27)) (or (or P14 ?v_66) ?v_132)) (or (or ?v_122 ?v_67) ?v_94)) (or (or ?v_66 ?v_43) ?v_68)) (or (or ?v_69 ?v_70) P25)) (or (or ?v_71 P23) ?v_61)) (or (or P27 ?v_90) P6)) (or (or ?v_130 ?v_117) ?v_52)) (or (or ?v_70 ?v_29) P24)) (or (or ?v_74 ?v_26) ?v_38)) (or (or ?v_66 ?v_70) ?v_143)) (or (or ?v_144 ?v_19) ?v_70)) (or (or ?v_76 ?v_77) ?v_78)) (or (or ?v_76 ?v_20) ?v_79)) (or (or P8 ?v_68) ?v_80)) (or (or ?v_68 ?v_19) ?v_40)) (or (or P5 ?v_7) ?v_40)) (or (or ?v_81 ?v_53) ?v_82)) (or (or ?v_34 ?v_83) ?v_18)) (or (or ?v_99 ?v_13) ?v_84)) (or (or ?v_25 ?v_85) P6)) (or (or P15 ?v_86) ?v_61)) (or (or ?v_33 ?v_15) ?v_76)) (or (or ?v_78 ?v_43) ?v_37)) (or (or ?v_6 ?v_7) ?v_70)) (or (or ?v_1 ?v_87) ?v_76)) (or (or ?v_85 P8) P25)) (or (or ?v_88 ?v_52) ?v_64)) (or (or P25 ?v_97) ?v_43)) (or (or ?v_89 ?v_88) P15)) (or (or ?v_90 P12) ?v_16)) (or (or ?v_91 P21) ?v_31)) (or (or ?v_92 ?v_7) ?v_18)) (or (or ?v_109 ?v_93) ?v_28)) (or (or P19 ?v_89) ?v_44)) (or (or P8 ?v_104) P13)) (or (or ?v_94 ?v_20) ?v_23)) (or (or ?v_33 ?v_128) ?v_95)) (or (or ?v_54 ?v_4) ?v_96)) (or (or ?v_64 ?v_97) P29)) (or (or ?v_16 P5) ?v_139)) (or (or ?v_98 ?v_97) ?v_147)) (or (or ?v_8 ?v_94) P17)) (or (or ?v_59 P26) P25)) (or (or ?v_18 P4) ?v_99)) (or (or ?v_29 ?v_100) P17)) (or (or ?v_53 ?v_15) ?v_101)) (or (or ?v_92 ?v_21) P28)) (or (or ?v_98 ?v_23) ?v_102)) (or (or ?v_27 ?v_101) ?v_48)) (or (or ?v_103 ?v_74) ?v_76)) (or (or P20 ?v_15) ?v_91)) (or (or ?v_49 ?v_47) P14)) (or (or ?v_57 P5) ?v_69)) (or (or P17 ?v_26) ?v_114)) (or (or ?v_111 ?v_100) ?v_112)) (or (or ?v_115 ?v_91) P15)) (or (or P6 ?v_27) ?v_61)) (or (or P14 ?v_97) ?v_38)) (or (or ?v_1 ?v_70) ?v_31)) (or (or P10 ?v_93) ?v_96)) (or (or ?v_79 ?v_97) P19)) (or (or ?v_45 ?v_105) ?v_10)) (or (or P12 ?v_106) ?v_7)) (or (or ?v_95 ?v_107) ?v_120)) (or (or ?v_38 ?v_25) P1)) (or (or ?v_84 P15) P18)) (or (or ?v_108 ?v_123) ?v_85)) (or (or ?v_84 ?v_109) ?v_47)) (or (or P8 ?v_61) ?v_93)) (or (or ?v_110 ?v_19) ?v_94)) (or (or ?v_100 ?v_48) ?v_111)) (or (or ?v_41 ?v_62) ?v_85)) (or (or P20 ?v_36) ?v_12)) (or (or ?v_44 ?v_134) ?v_61)) (or (or P13 ?v_112) ?v_97)) (or (or ?v_95 ?v_53) P4)) (or (or ?v_60 ?v_98) P4)) (or (or ?v_93 ?v_68) ?v_92)) (or (or ?v_111 P3) ?v_70)) (or (or ?v_52 ?v_59) ?v_135)) (or (or P3 ?v_68) ?v_63)) (or (or ?v_4 ?v_91) ?v_129)) (or (or ?v_4 ?v_64) ?v_67)) (or (or ?v_72 ?v_102) ?v_114)) (or (or P10 ?v_115) ?v_5)) (or (or ?v_108 ?v_94) P27)) (or (or ?v_78 ?v_126) ?v_63)) (or (or ?v_116 P26) ?v_100)) (or (or ?v_23 ?v_117) P1)) (or (or ?v_60 P9) ?v_27)) (or (or ?v_82 ?v_118) P10)) (or (or ?v_119 P2) ?v_120)) (or (or P12 ?v_20) P20)) (or (or ?v_92 P23) P29)) (or (or P11 ?v_28) ?v_86)) (or (or ?v_80 ?v_150) ?v_12)) (or (or ?v_47 ?v_121) ?v_107)) (or (or ?v_113 ?v_112) P13)) (or (or P10 ?v_98) ?v_86)) (or (or P18 P15) ?v_56)) (or (or ?v_62 ?v_86) ?v_122)) (or (or ?v_26 ?v_53) ?v_21)) (or (or ?v_20 ?v_104) ?v_86)) (or (or P10 ?v_123) ?v_124)) (or (or ?v_46 P6) P18)) (or (or ?v_19 ?v_125) ?v_126)) (or (or ?v_48 P8) P3)) (or (or ?v_127 ?v_87) ?v_25)) (or (or ?v_19 ?v_128) ?v_24)) (or (or P13 P19) ?v_129)) (or (or ?v_130 P7) ?v_74)) (or (or ?v_33 ?v_95) ?v_77)) (or (or P27 ?v_66) ?v_91)) (or (or ?v_37 ?v_41) ?v_35)) (or (or ?v_37 ?v_28) ?v_96)) (or (or ?v_12 ?v_89) ?v_111)) (or (or P12 ?v_131) P16)) (or (or ?v_33 P6) ?v_67)) (or (or ?v_54 ?v_79) ?v_132)) (or (or ?v_133 ?v_57) P10)) (or (or P17 P15) ?v_51)) (or (or ?v_27 ?v_63) ?v_55)) (or (or ?v_134 ?v_131) ?v_40)) (or (or ?v_93 ?v_41) ?v_34)) (or (or ?v_128 ?v_51) P18)) (or (or ?v_135 ?v_129) ?v_29)) (or (or ?v_124 ?v_24) P20)) (or (or ?v_105 ?v_40) P25)) (or (or ?v_125 ?v_83) P22)) (or (or ?v_19 ?v_68) ?v_98)) (or (or ?v_6 P7) ?v_47)) (or (or ?v_96 P13) ?v_133)) (or (or ?v_136 ?v_60) ?v_69)) (or (or P10 P8) ?v_21)) (or (or ?v_88 P15) P24)) (or (or ?v_3 ?v_135) ?v_137)) (or (or ?v_29 ?v_94) ?v_95)) (or (or ?v_115 ?v_112) ?v_12)) (or (or ?v_89 ?v_123) ?v_138)) (or (or ?v_123 ?v_85) ?v_108)) (or (or ?v_139 ?v_138) ?v_76)) (or (or ?v_138 ?v_104) P19)) (or (or P2 ?v_45) ?v_106)) (or (or ?v_131 ?v_37) ?v_74)) (or (or ?v_82 ?v_99) ?v_106)) (or (or ?v_140 ?v_42) P26)) (or (or ?v_141 ?v_69) ?v_135)) (or (or P13 ?v_124) ?v_82)) (or (or ?v_95 ?v_27) ?v_46)) (or (or ?v_47 ?v_132) ?v_129)) (or (or ?v_102 ?v_52) ?v_103)) (or (or ?v_19 ?v_62) ?v_13)) (or (or P4 ?v_133) ?v_51)) (or (or P10 ?v_10) P1)) (or (or ?v_140 P24) ?v_28)) (or (or ?v_87 ?v_26) ?v_61)) (or (or ?v_3 ?v_72) ?v_101)) (or (or ?v_1 ?v_135) P19)) (or (or ?v_68 ?v_40) ?v_140)) (or (or ?v_141 P13) ?v_92)) (or (or ?v_87 ?v_28) ?v_104)) (or (or ?v_51 ?v_76) ?v_142)) (or (or ?v_106 ?v_42) ?v_104)) (or (or ?v_34 ?v_130) ?v_114)) (or (or ?v_143 ?v_144) ?v_134)) (or (or ?v_74 ?v_50) P19)) (or (or ?v_35 ?v_13) ?v_30)) (or (or ?v_42 ?v_153) P2)) (or (or ?v_0 ?v_65) ?v_136)) (or (or ?v_127 ?v_38) P3)) (or (or ?v_44 ?v_119) ?v_131)) (or (or ?v_145 ?v_103) ?v_84)) (or (or ?v_106 ?v_146) ?v_114)) (or (or ?v_146 ?v_57) ?v_147)) (or (or ?v_101 ?v_142) ?v_148)) (or (or ?v_69 ?v_139) ?v_131)) (or (or ?v_45 P10) ?v_114)) (or (or ?v_148 ?v_38) ?v_57)) (or (or ?v_18 ?v_111) ?v_6)) (or (or ?v_109 ?v_91) ?v_56)) (or (or ?v_75 ?v_122) P24)) (or (or ?v_127 ?v_114) P15)) (or (or ?v_80 P1) ?v_98)) (or (or ?v_12 ?v_18) ?v_91)) (or (or P13 ?v_23) ?v_149)) (or (or P19 ?v_150) ?v_27)) (or (or ?v_58 ?v_59) ?v_71)) (or (or ?v_52 ?v_40) ?v_140)) (or (or ?v_52 ?v_90) ?v_116)) (or (or ?v_76 ?v_5) P2)) (or (or ?v_26 ?v_50) ?v_92)) (or (or ?v_138 ?v_138) P14)) (or (or ?v_142 ?v_15) ?v_101)) (or (or P20 ?v_59) ?v_115)) (or (or ?v_115 ?v_126) ?v_7)) (or (or ?v_149 ?v_84) ?v_58)) (or (or ?v_116 ?v_120) ?v_108)) (or (or ?v_16 ?v_123) ?v_18)) (or (or ?v_151 (not ?v_126)) ?v_37)) (or (or ?v_112 ?v_22) P13)) (or (or ?v_52 ?v_84) ?v_102)) (or (or ?v_91 ?v_147) ?v_118)) (or (or ?v_146 ?v_84) ?v_18)) (or (or P3 ?v_104) ?v_133)) (or (or ?v_144 ?v_93) ?v_130)) (or (or ?v_59 ?v_107) ?v_62)) (or (or ?v_36 P5) ?v_88)) (or (or ?v_31 ?v_124) ?v_49)) (or (or P4 P1) ?v_59)) (or (or ?v_55 ?v_113) P23)) (or (or ?v_137 ?v_19) ?v_52)) (or (or ?v_30 ?v_57) ?v_117)) (or (or ?v_92 ?v_98) ?v_66)) (or (or ?v_56 P18) ?v_82)) (or (or ?v_52 ?v_102) ?v_65)) (or (or ?v_149 ?v_61) ?v_112)) (or (or ?v_11 ?v_126) P15)) (or (or ?v_84 ?v_50) ?v_79)) (or (or ?v_108 ?v_125) ?v_76)) (or (or ?v_93 ?v_143) P13)) (or (or P15 ?v_31) ?v_16)) (or (or ?v_59 ?v_133) ?v_10)) (or (or ?v_150 ?v_31) ?v_26)) (or (or ?v_24 ?v_13) ?v_101)) (or (or P23 P16) P20)) (or (or ?v_7 ?v_121) ?v_103)) (or (or ?v_89 ?v_58) ?v_101)) (or (or P18 ?v_138) ?v_67)) (or (or ?v_91 ?v_38) ?v_88)) (or (or ?v_21 ?v_10) ?v_48)) (or (or P4 P14) ?v_27)) (or (or ?v_107 ?v_148) ?v_144)) (or (or ?v_94 ?v_91) ?v_71)) (or (or ?v_21 ?v_81) ?v_117)) (or (or ?v_25 ?v_81) ?v_15)) (or (or ?v_69 ?v_16) ?v_25)) (or (or P3 P17) ?v_93)) (or (or ?v_13 ?v_152) ?v_129)) (or (or ?v_70 ?v_36) ?v_4)) (or (or ?v_44 ?v_76) ?v_34)) (or (or ?v_135 ?v_28) ?v_145)) (or (or ?v_0 ?v_35) P12)) (or (or ?v_78 ?v_70) ?v_28)) (or (or ?v_80 ?v_131) P15)) (or (or P23 P17) ?v_90)) (or (or P6 ?v_122) ?v_72)) (or (or ?v_44 P10) ?v_108)) (or (or P1 ?v_122) ?v_85)) (or (or ?v_114 P10) ?v_101)) (or (or ?v_116 ?v_72) ?v_109)) (or (or ?v_84 P12) ?v_45)) (or (or ?v_29 ?v_41) ?v_56)) (or (or ?v_91 ?v_104) ?v_127)) (or (or P18 ?v_48) P2)) (or (or ?v_94 ?v_146) P21)) (or (or P16 ?v_46) ?v_79)) (or (or ?v_104 ?v_123) ?v_67)) (or (or ?v_83 ?v_110) ?v_30)) (or (or ?v_98 P13) ?v_93)) (or (or ?v_11 ?v_153) ?v_139)) (or (or ?v_96 ?v_23) ?v_64)) (or (or ?v_122 ?v_37) ?v_147)) (or (or ?v_105 ?v_68) ?v_115)) (or (or P7 ?v_113) P5)) (or (or ?v_125 ?v_18) ?v_115)) (or (or ?v_86 ?v_34) ?v_90)) (or (or ?v_102 ?v_146) P1)) (or (or ?v_93 ?v_113) ?v_121)) (or (or ?v_75 ?v_104) ?v_82)) (or (or ?v_111 P13) ?v_3)) (or (or ?v_44 ?v_102) ?v_68)) (or (or ?v_123 ?v_139) P5)) (or (or ?v_126 ?v_44) P18)) (or (or ?v_109 ?v_21) ?v_47)) (or (or P6 ?v_59) ?v_117)) (or (or ?v_8 ?v_19) P19)) (or (or ?v_50 P27) ?v_119)) (or (or P22 ?v_152) ?v_1)) (or (or ?v_100 ?v_64) ?v_92)) (or (or ?v_69 ?v_24) ?v_146)) (or (or ?v_153 P4) ?v_133)) (or (or P14 ?v_44) ?v_124)) (or (or ?v_136 ?v_27) ?v_24)) (or (or ?v_104 ?v_15) ?v_123)) (or (or ?v_41 ?v_86) ?v_83)) (or (or ?v_41 ?v_50) P0)) (or (or ?v_6 ?v_98) P23)) (or (or ?v_105 P12) ?v_146)) (or (or ?v_34 ?v_90) ?v_58)) (or (or ?v_33 ?v_87) ?v_30)) (or (or ?v_18 P5) ?v_61)) (or (or ?v_50 ?v_134) ?v_101)) (or (or ?v_100 ?v_137) ?v_29)) (or (or ?v_13 ?v_93) ?v_48)) (or (or ?v_31 P4) ?v_144)) (or (or P5 ?v_79) P26)))))))))))))))))))))))))))
(check-sat)
(exit)
